n_res = 4;
rc = [ 14, 14, 13, 15 ];
n_tasks = 30;
d = [ 10, 10, 2, 8, 10, 1, 7, 8, 9, 8, 8, 2, 1, 4, 9, 5, 1, 5, 8, 9, 2, 8, 2, 4, 5, 6, 7, 7, 7, 2 ];
rr = [| 2, 6, 2, 6, 6, 1, 6, 2, 8, 8, 9, 8, 3, 9, 8, 2, 4, 2, 9, 3, 7, 4, 10, 10, 4, 1, 2, 2, 6, 2
      | 4, 8, 10, 10, 1, 6, 7, 1, 1, 1, 3, 8, 1, 8, 7, 10, 6, 4, 6, 5, 4, 6, 4, 9, 10, 8, 10, 3, 2, 2
      | 3, 3, 1, 4, 7, 9, 10, 3, 3, 8, 7, 10, 5, 4, 3, 1, 4, 6, 7, 8, 4, 6, 6, 2, 2, 3, 9, 7, 3, 4
      | 3, 1, 1, 3, 3, 10, 2, 6, 9, 9, 5, 1, 8, 4, 5, 10, 9, 8, 3, 3, 8, 4, 6, 8, 10, 2, 4, 4, 10, 4 |];
suc = [ { 2 }, 
        { 3 }, 
        { 4 }, 
        { 5 }, 
        { 6 }, 
        { 7 }, 
        { 8 }, 
        { 9 }, 
        { 10 }, 
        { 11 }, 
        { 12 }, 
        { 13 }, 
        { 14 }, 
        { 15 }, 
        { 16 }, 
        { 17 }, 
        { 18 }, 
        { 19 }, 
        { 20 }, 
        { 21 }, 
        { 22 }, 
        { 23 }, 
        { 24 }, 
        { 25 }, 
        { 26 }, 
        { 27 }, 
        { 28 }, 
        { 29 }, 
        { 30 }, 
        {  }]; 
